p cnf 184 515
1 2 0
-1 -2 0
19 20 0
-19 -20 0
37 38 0
-37 -38 0
3 4 0
-3 -4 0
21 22 0
-21 -22 0
39 40 0
-39 -40 0
5 6 0
-5 -6 0
23 24 0
-23 -24 0
41 42 0
-41 -42 0
7 8 0
-7 -8 0
25 26 0
-25 -26 0
43 44 0
-43 -44 0
9 10 0
-9 -10 0
27 28 0
-27 -28 0
45 46 0
-45 -46 0
11 12 0
-11 -12 0
29 30 0
-29 -30 0
47 48 0
-47 -48 0
13 14 0
-13 -14 0
31 32 0
-31 -32 0
49 50 0
-49 -50 0
15 16 0
-15 -16 0
33 34 0
-33 -34 0
51 52 0
-51 -52 0
17 18 0
-17 -18 0
35 36 0
-35 -36 0
53 54 0
-53 -54 0
148 157 166 0
-148 109 0
-157 118 0
-166 127 0
149 158 167 0
-149 110 0
-158 119 0
-167 128 0
150 159 168 0
-150 111 0
-159 120 0
-168 129 0
151 160 169 0
-151 112 0
-160 121 0
-169 130 0
152 161 170 0
-152 113 0
-161 122 0
-170 131 0
153 162 171 0
-153 114 0
-162 123 0
-171 132 0
154 163 172 0
-154 115 0
-163 124 0
-172 133 0
155 164 173 0
-155 116 0
-164 125 0
-173 134 0
73 -1 -157 21 0
-19 157 21 0
-73 21 0
74 -2 -157 22 0
-20 157 22 0
-74 22 0
91 -19 -166 39 0
-37 166 39 0
-91 39 0
92 -20 -166 40 0
-38 166 40 0
-92 40 0
-55 -148 4 0
-1 148 3 0
55 -1 3 0
-56 -148 3 0
-2 148 4 0
56 -2 4 0
75 -3 -158 23 0
-21 158 23 0
-75 23 0
76 -4 -158 24 0
-22 158 24 0
-76 24 0
93 -21 -167 41 0
-39 167 41 0
-93 41 0
94 -22 -167 42 0
-40 167 42 0
-94 42 0
-57 -149 6 0
-3 149 5 0
57 -3 5 0
-58 -149 5 0
-4 149 6 0
58 -4 6 0
77 -5 -159 25 0
-23 159 25 0
-77 25 0
78 -6 -159 26 0
-24 159 26 0
-78 26 0
95 -23 -168 43 0
-41 168 43 0
-95 43 0
96 -24 -168 44 0
-42 168 44 0
-96 44 0
-59 -150 8 0
-5 150 7 0
59 -5 7 0
-60 -150 7 0
-6 150 8 0
60 -6 8 0
79 -7 -160 27 0
-25 160 27 0
-79 27 0
80 -8 -160 28 0
-26 160 28 0
-80 28 0
97 -25 -169 45 0
-43 169 45 0
-97 45 0
98 -26 -169 46 0
-44 169 46 0
-98 46 0
-61 -151 10 0
-7 151 9 0
61 -7 9 0
-62 -151 9 0
-8 151 10 0
62 -8 10 0
81 -9 -161 29 0
-27 161 29 0
-81 29 0
82 -10 -161 30 0
-28 161 30 0
-82 30 0
99 -27 -170 47 0
-45 170 47 0
-99 47 0
100 -28 -170 48 0
-46 170 48 0
-100 48 0
-63 -152 12 0
-9 152 11 0
63 -9 11 0
-64 -152 11 0
-10 152 12 0
64 -10 12 0
83 -11 -162 31 0
-29 162 31 0
-83 31 0
84 -12 -162 32 0
-30 162 32 0
-84 32 0
101 -29 -171 49 0
-47 171 49 0
-101 49 0
102 -30 -171 50 0
-48 171 50 0
-102 50 0
-65 -153 14 0
-11 153 13 0
65 -11 13 0
-66 -153 13 0
-12 153 14 0
66 -12 14 0
85 -13 -163 33 0
-31 163 33 0
-85 33 0
86 -14 -163 34 0
-32 163 34 0
-86 34 0
103 -31 -172 51 0
-49 172 51 0
-103 51 0
104 -32 -172 52 0
-50 172 52 0
-104 52 0
-67 -154 16 0
-13 154 15 0
67 -13 15 0
-68 -154 15 0
-14 154 16 0
68 -14 16 0
87 -15 -164 35 0
-33 164 35 0
-87 35 0
88 -16 -164 36 0
-34 164 36 0
-88 36 0
105 -33 -173 53 0
-51 173 53 0
-105 53 0
106 -34 -173 54 0
-52 173 54 0
-106 54 0
-69 -155 18 0
-15 155 17 0
69 -15 17 0
-70 -155 17 0
-16 155 18 0
70 -16 18 0
-55 1 0
-55 37 0
55 -1 -37 0
-56 2 0
-56 38 0
56 -2 -38 0
-73 19 0
-73 1 0
73 -19 -1 0
-74 20 0
-74 2 0
74 -20 -2 0
-91 37 0
-91 19 0
91 -37 -19 0
-92 38 0
-92 20 0
92 -38 -20 0
-57 3 0
-57 39 0
57 -3 -39 0
-58 4 0
-58 40 0
58 -4 -40 0
-75 21 0
-75 3 0
75 -21 -3 0
-76 22 0
-76 4 0
76 -22 -4 0
-93 39 0
-93 21 0
93 -39 -21 0
-94 40 0
-94 22 0
94 -40 -22 0
-59 5 0
-59 41 0
59 -5 -41 0
-60 6 0
-60 42 0
60 -6 -42 0
-77 23 0
-77 5 0
77 -23 -5 0
-78 24 0
-78 6 0
78 -24 -6 0
-95 41 0
-95 23 0
95 -41 -23 0
-96 42 0
-96 24 0
96 -42 -24 0
-61 7 0
-61 43 0
61 -7 -43 0
-62 8 0
-62 44 0
62 -8 -44 0
-79 25 0
-79 7 0
79 -25 -7 0
-80 26 0
-80 8 0
80 -26 -8 0
-97 43 0
-97 25 0
97 -43 -25 0
-98 44 0
-98 26 0
98 -44 -26 0
-63 9 0
-63 45 0
63 -9 -45 0
-64 10 0
-64 46 0
64 -10 -46 0
-81 27 0
-81 9 0
81 -27 -9 0
-82 28 0
-82 10 0
82 -28 -10 0
-99 45 0
-99 27 0
99 -45 -27 0
-100 46 0
-100 28 0
100 -46 -28 0
-65 11 0
-65 47 0
65 -11 -47 0
-66 12 0
-66 48 0
66 -12 -48 0
-83 29 0
-83 11 0
83 -29 -11 0
-84 30 0
-84 12 0
84 -30 -12 0
-101 47 0
-101 29 0
101 -47 -29 0
-102 48 0
-102 30 0
102 -48 -30 0
-67 13 0
-67 49 0
67 -13 -49 0
-68 14 0
-68 50 0
68 -14 -50 0
-85 31 0
-85 13 0
85 -31 -13 0
-86 32 0
-86 14 0
86 -32 -14 0
-103 49 0
-103 31 0
103 -49 -31 0
-104 50 0
-104 32 0
104 -50 -32 0
-69 15 0
-69 51 0
69 -15 -51 0
-70 16 0
-70 52 0
70 -16 -52 0
-87 33 0
-87 15 0
87 -33 -15 0
-88 34 0
-88 16 0
88 -34 -16 0
-105 51 0
-105 33 0
105 -51 -33 0
-106 52 0
-106 34 0
106 -52 -34 0
-71 17 0
-71 53 0
71 -17 -53 0
-72 18 0
-72 54 0
72 -18 -54 0
-89 35 0
-89 17 0
89 -35 -17 0
-90 36 0
-90 18 0
90 -36 -18 0
-107 53 0
-107 35 0
107 -53 -35 0
-108 54 0
-108 36 0
108 -54 -36 0
-109 55 56 0
-118 -73 0
-118 -74 0
-127 -91 0
-127 -92 0
-110 57 58 0
-119 -75 0
-119 -76 0
-128 -93 0
-128 -94 0
-111 59 60 0
-120 -77 0
-120 -78 0
-129 -95 0
-129 -96 0
-112 61 62 0
-121 -79 0
-121 -80 0
-130 -97 0
-130 -98 0
-113 63 64 0
-122 -81 0
-122 -82 0
-131 -99 0
-131 -100 0
-114 65 66 0
-123 -83 0
-123 -84 0
-132 -101 0
-132 -102 0
-115 67 68 0
-124 -85 0
-124 -86 0
-133 -103 0
-133 -104 0
-116 69 70 0
-125 -87 0
-125 -88 0
-134 -105 0
-134 -106 0
-117 71 72 0
-126 -89 0
-126 -90 0
-135 -107 0
-135 -108 0
-174 0
117 175 0
126 175 0
117 126 176 0
135 177 0
-174 177 0
135 -174 178 0
-175 179 0
-177 179 0
-175 -177 180 0
-176 181 0
-178 181 0
-176 -178 182 0
-180 183 0
-181 183 0
-180 -181 184 0
-183 0
-118 -73 0
-118 -74 0
118 73 74 0
-127 -91 0
-127 -92 0
127 91 92 0
-119 -75 0
-119 -76 0
119 75 76 0
-128 -93 0
-128 -94 0
128 93 94 0
-120 -77 0
-120 -78 0
120 77 78 0
-129 -95 0
-129 -96 0
129 95 96 0
-121 -79 0
-121 -80 0
121 79 80 0
-130 -97 0
-130 -98 0
130 97 98 0
-122 -81 0
-122 -82 0
122 81 82 0
-131 -99 0
-131 -100 0
131 99 100 0
-123 -83 0
-123 -84 0
123 83 84 0
-132 -101 0
-132 -102 0
132 101 102 0
-124 -85 0
-124 -86 0
124 85 86 0
-133 -103 0
-133 -104 0
133 103 104 0
-125 -87 0
-125 -88 0
125 87 88 0
-134 -105 0
-134 -106 0
134 105 106 0
-126 -89 0
-126 -90 0
126 89 90 0
-135 -107 0
-135 -108 0
135 107 108 0
137 138 141 0
-137 148 0
-137 157 0
-138 148 0
-138 166 0
-141 157 0
-141 166 0
